Maximize

5 x_0 + 4 x_1 + 3 x_2 + 4 x_3 + 3 x_4 + 5 x_5 + 2 x_6 + 4 x_7 + 3 x_8 + 2 x_9


Subject To

a0: x_0 + x_1 + x_2 + x_3 + x_4 + x_5 + x_6 + x_7 + x_8 + x_9 > 0
b0: x_0 + x_1 + x_2 - x_3 - x_4 >= 0
b1: x_0 + x_1 + x_2 - x_5 - x_6 >= 0
b2: x_0 + x_1 + x_2 - x_7 >= 0
b3: x_0 + x_1 + x_2 - x_8 - x_9 >= 0
c0: 22 x_1 + 18 x_1 + 24 x_1 + 26 x_1 + 22 x_1 - 20 x_1 - 20 x_1 - 20 x_1 - 20 x_1 - 20 x_1 >= 0
d0: 100 x_0 + 130 x_1 + 90 x_2 + 120 x_3 + 70 x_4 + 110 x_5 + 80 x_6 + 90 x_7 + 75 x_8 + 95 x_9 <= 800




Binary

x_0 x_1 x_2 x_3 x_4 x_5 x_6 x_7 x_8 x_9

 


End
